c --- [ banner ] -------------------------------------------------------------
c 
c CaDiCaL Radically Simplified CDCL SAT Solver
c Copyright (c) 2016-2021 A. Biere, M. Fleury, N. Froleyks
c 
c Version 1.5.2 a5f15211db36c3956764e18194dd5bd63bf3b5e6
c g++ (GCC) 9.3.0 -Wall -Wextra -O3 -DNDEBUG
c Fri Oct 21 01:27:37 EDT 2022 Linux gra-login3 3.10.0-1160.66.1.el7.x86_64 x86_64
c 
c --- [ limit ] --------------------------------------------------------------
c 
c setting conflict limit to 200000 conflicts (due to '200000')
c 
c --- [ parsing input ] ------------------------------------------------------
c 
c reading DIMACS file from '33.cubes7082.adj'
c opening file to read '33.cubes7082.adj'
c found 'p cnf 6160 1595480' header
c parsed 1595480 clauses in 18.87 seconds process time
c closing file '33.cubes7082.adj'
c after reading 1457566811 bytes 1390.0 MB
c 
c --- [ options ] ------------------------------------------------------------
c 
c all options are set to their default value
c 
c --- [ solving ] ------------------------------------------------------------
c 
c time measured in process time since initialization
c 
c  seconds    reductions  redundant   irredundant
c          MB     restarts       trail       variables
c            level   conflicts       glue         remaining
c 
c * 18.87 1381  0 0   0    0    0  0% 0 1595422 2338 38%
c { 19.63 1430  0 0   0    0    0  0% 0 1595422 2338 38%
c i 20.28 1452 1336 0   0   10    9 40% 1 1595422 2309 37%
c i 23.89 1514 471 0  12   78   70 30% 18 1595422 2304 37%
c i 24.25 1515 435 0  14   86   76 30% 20 1595422 2303 37%
c i 24.47 1517 397 0  17   95   84 30% 21 1595422 2302 37%
c i 24.73 1519 395 0  17   96   84 29% 21 1595422 2301 37%
c i 26.13 1526 186 0  25  223  192 30% 20 1595422 2300 37%
c i 26.32 1526 171 0  29  248  214 30% 21 1595422 2299 37%
c i 26.34 1526 166 0  31  256  220 30% 21 1595422 2298 37%
c i 26.35 1526 161 0  32  264  225 30% 21 1595422 2297 37%
c i 26.36 1526 159 0  32  268  228 30% 21 1595422 2296 37%
c i 26.43 1527 150 0  32  285  232 30% 20 1595422 2295 37%
c i 26.47 1527 145 0  32  297  237 30% 20 1595422 2294 37%
c i 26.48 1527 143 0  32  301  240 30% 20 1595422 2293 37%
c - 30.50 1501 143 1  32  301  239 30% 20 525773 2293 37%
c i 30.72 1411 142 1  32  304  241 30% 19 525773 2292 37%
c i 30.86 1411 139 1  32  318  251 30% 20 525773 2291 37%
c i 31.19 1411 136 1  35  340  271 30% 22 525773 2290 37%
c i 31.43 1412 133 1  39  353  281 30% 22 525773 2289 37%
c 
c  seconds     reductions  redundant   irredundant
c          MB      restarts       trail       variables
c             level   conflicts       glue         remaining
c 
c i 31.44 1412 133 1  39  354  281 30% 22 525773 2288 37%
c i 31.67 1412 132 1  41  359  285 30% 22 525773 2287 37%
c i 31.87 1412 131 1  44  373  298 30% 23 525773 2280 37%
c i 32.47 1414 130 1  50  396  315 30% 23 525773 2274 37%
c i 32.54 1414 129 1  51  399  317 30% 23 525773 2273 37%
c i 32.82 1414 129 1  54  412  327 30% 25 525773 2272 37%
c i 33.29 1415 125 1  64  448  351 29% 25 525773 2271 37%
c i 35.39 1418 116 1  88  573  462 29% 27 525773 2270 37%
c i 35.94 1418 111 1  88  640  510 29% 27 525773 2269 37%
c i 36.21 1418 108 1  90  676  541 29% 27 525773 2268 37%
c i 36.60 1418 105 1  98  717  569 29% 27 525773 2267 37%
c i 36.70 1418 104 1  98  728  574 29% 27 525773 2266 37%
c i 37.54 1419 103 1 115  803  639 29% 29 525773 2265 37%
c i 37.74 1419 104 1 121  826  660 29% 30 525773 2264 37%
c i 37.96 1419 104 1 123  834  666 29% 30 525773 2263 37%
c i 38.30 1419 103 1 127  847  676 29% 30 525773 2260 37%
c i 38.34 1419 103 1 128  849  677 29% 30 525773 2259 37%
c i 38.40 1419 103 1 128  850  677 29% 30 525773 2258 37%
c i 38.70 1419 104 1 129  867  692 29% 30 525773 2257 37%
c i 40.10 1420 106 1 141  943  759 28% 31 525773 2256 37%
c 
c  seconds     reductions  redundant   irredundant
c          MB      restarts       trail       variables
c             level   conflicts       glue         remaining
c 
c } 41.20 1420 107 1 153 1000  808 28% 32 525773 2256 37%
c [ 41.20 1420  0 1 153 1000  808  0% 0 525773 2256 37%
c O 41.29 1420 69 1 153 1005  810 23% 17 525773 2256 37%
c i 41.55 1420 30 1 153 1022  826 26% 8 525773 2255 37%
c i 41.67 1420 37 1 153 1036  838 27% 14 525773 2254 37%
c i 41.72 1420 36 1 153 1039  840 27% 15 525773 2253 37%
c i 42.25 1420 42 1 153 1086  882 29% 26 525773 2252 37%
c i 42.96 1420 38 1 153 1250 1006 30% 27 525773 2251 37%
c i 43.02 1420 37 1 153 1267 1021 30% 27 525773 2250 37%
c - 44.30 1635 36 2 153 1335  953 30% 27 525477 2250 37%
c i 45.83 1635 32 2 153 1663 1186 30% 25 525477 2249 37%
c i 45.88 1635 32 2 153 1678 1198 30% 25 525477 2248 36%
c i 46.36 1635 32 2 153 1929 1361 30% 26 525477 2247 36%
c i 47.85 1635 37 2 154 2864 1965 30% 31 525477 2246 36%
c i 47.86 1635 37 2 154 2865 1965 30% 31 525477 2245 36%
c - 48.56 1633 37 3 154 2886 1517 30% 31 525462 2245 36%
c ] 49.60 1633 37 3 154 3000 1607 45% 30 525462 2245 36%
c { 49.60 1633 107 3 154 3000 1607 77% 32 525462 2245 36%
c F 49.76 1633 107 3 156 3006 1613 77% 31 525462 2245 36%
c i 50.23 1633 103 3 157 3042 1642 76% 31 525462 2244 36%
c 
c  seconds     reductions  redundant   irredundant
c          MB      restarts       trail       variables
c             level   conflicts       glue         remaining
c 
c i 50.46 1633 102 3 157 3070 1664 75% 30 525462 2243 36%
c i 50.50 1633 101 3 157 3073 1666 75% 30 525462 2242 36%
c i 50.52 1633 101 3 157 3078 1670 75% 30 525462 2241 36%
c i 50.63 1633 101 3 157 3088 1679 74% 30 525462 2240 36%
c i 51.01 1633 100 3 157 3131 1702 73% 30 525462 2239 36%
c i 51.59 1633 98 3 160 3182 1747 72% 30 525462 2238 36%
c i 53.18 1633 94 3 173 3323 1873 69% 31 525462 2237 36%
c i 53.19 1633 94 3 173 3325 1874 69% 31 525462 2236 36%
c i 54.59 1633 89 3 181 3493 2013 66% 30 525462 2235 36%
c i 54.65 1633 89 3 181 3512 2030 66% 30 525462 2234 36%
c i 54.67 1633 88 3 181 3520 2037 65% 30 525462 2233 36%
c i 54.68 1633 88 3 181 3526 2042 65% 30 525462 2232 36%
c i 54.85 1633 86 3 181 3601 2102 64% 30 525462 2231 36%
c i 55.16 1633 86 3 184 3654 2147 64% 30 525462 2230 36%
c i 56.34 1633 83 3 200 3811 2281 62% 30 525462 2229 36%
c i 56.35 1633 83 3 200 3825 2292 62% 30 525462 2228 36%
c i 57.00 1633 78 3 207 4052 2476 61% 30 525462 2227 36%
c i 57.09 1633 77 3 207 4129 2530 60% 30 525462 2226 36%
c } 57.75 1633 61 3 207 4880 2981 57% 26 525462 2226 36%
c 1 57.75 1633 61 3 207 4880 2981 57% 26 525462 2226 36%
c 
c --- [ writing output ] -----------------------------------------------------
c 
c writing simplified CNF to DIMACS file 'simp/33.cubes7082.adj.simp1'
c 
c  seconds    reductions  redundant   irredundant
c          MB     restarts       trail       variables
c            level   conflicts       glue         remaining
c 
c * 57.75 1633 61 3 207 4880 2981 57% 26 525462 2226 36%
c opening file to write 'simp/33.cubes7082.adj.simp1'
c writing 'p cnf 6160 525405' header
c closing file 'simp/33.cubes7082.adj.simp1'
c after writing 234939054 bytes 224.1 MB
c wrote 525405 clauses in 1.78 seconds process time
c 
c --- [ writing extension ] --------------------------------------------------
c 
c writing extension stack to 'simp/33.cubes7082.adj.ext1'
c opening file to write 'simp/33.cubes7082.adj.ext1'
c closing file 'simp/33.cubes7082.adj.ext1'
c after writing 11732 bytes 0.0 MB
c wrote 790 witnesses in 0.00 seconds process time
c 
c --- [ result ] -------------------------------------------------------------
c 
s SATISFIABLE
c 
c --- [ run-time profiling ] -------------------------------------------------
c 
c process time taken by individual solving procedures
c (percentage relative to process time for solving)
c 
c        38.88  100.00% search
c        29.71   76.42% unstable
c        18.87   48.52% parse
c         8.40   21.61% stable
c         0.77    1.98% lucky
c         0.00    0.00% simplify
c   =================================
c        38.88   65.32% solve
c 
c last line shows process time for solving
c (percentage relative to total process time)
c 
c --- [ statistics ] ---------------------------------------------------------
c 
c chronological:              1397        28.63 %  of conflicts
c conflicts:                  4880       125.50    per second
c decisions:                 31347       806.16    per second
c fixed:                       790        12.82 %  of all variables
c learned:                    4729        96.91 %  per conflict
c learned_lits:             775722       100.00 %  learned literals
c minimized:                     0         0.00 %  learned literals
c shrunken:                 464073        59.82 %  learned literals
c minishrunken:              47616         6.14 %  learned literals
c propagations:             835170         0.02 M  per second
c reduced:                     577        11.82 %  per conflict
c rephased:                      2      2440.00    interval
c restarts:                    207        23.57    interval
c stabilizing:                   1        40.98 %  of conflicts
c subsumed:                   1099         0.03 %  of all clauses
c 
c seconds are measured in process time for solving
c 
c --- [ resources ] ----------------------------------------------------------
c 
c total process time since initialization:        59.53    seconds
c total real time since initialization:           59.78    seconds
c maximum resident set size of process:         1848.02    MB
c 
c --- [ shutting down ] ------------------------------------------------------
c 
c exit 10
WARNING! DIMACS header mismatch: wrong number of variables.
============================[ Problem Statistics ]=============================
|                                                                             |
|  Number of variables:          6120                                         |
|  Number of clauses:          525405                                         |
|  Parse time:                   3.16 s                                       |
|  Simplification time:          0.08 s                                       |
|                                                                             |
============================[ Search Statistics ]====================================================
| Conflicts |          ORIGINAL         |          LEARNT          | Num Sols |      SUBGRAPHS      |
|           |    Vars  Clauses Literals |    Limit  Clauses Lit/Cl |          | Canonical Noncanon. |
=====================================================================================================
|       106 |    6027   525411 51324375 |     2000      105    107 |        0 |        20         6 |
|       256 |    6027   525411 51324375 |     2000      255    118 |        0 |        29         6 |
|       496 |    6026   525426 51324816 |     2000      494    107 |        0 |        49        21 |
|      1340 |    6026   525933 51335768 |     2000     1338     70 |        0 |       173       528 |
|      3426 |    6026   527513 51370744 |     3604     2430     31 |        0 |       704      2108 |
|      4204 |    6026   527532 51371239 |     3604     3208     51 |        0 |       709      2127 |
|      5378 |    6026   527567 51372087 |     5002     2580     48 |        0 |       730      2162 |
|      7119 |    6025   527600 51372779 |     5002     4320     70 |        0 |       755      2195 |
|      9776 |    6025   527695 51375370 |     6308     4484     61 |        0 |       843      2290 |
|     51672 |    6025   565747 52076953 |    14808    11480     15 |        0 |      8393     40342 |
|    136438 |    6025   644747 53370829 |    24413    20251     13 |        0 |     19638    119342 |
|    258046 |    6025   757706 55219393 |    34015    27461     12 |        0 |     35468    232301 |
|    414011 |    6025   900697 57289985 |    43609    30620     10 |        0 |     46176    375292 |
|    550670 |    6011   750347 55076510 |    42979    19648     24 |        0 |     56594    492490 |
|    708271 |    6007   878756 57151363 |    56571    51840     24 |        0 |     72467    620899 |
|    769597 |    6006   896293 57400188 |    59149    55945     49 |        0 |     73739    638436 |
|    837122 |    6006   898134 57445127 |    62806    32928     19 |        0 |     74362    640277 |
=====================================================================================================
Number of solutions   : 0
Canonical subgraphs   : 95683          (14 /sec)
          order  3    : 1              (166667 /sec)
          order  4    : 1              (500000 /sec)
          order  5    : 1              (250000 /sec)
          order  6    : 1              (55556 /sec)
          order  7    : 1              (8850 /sec)
          order  8    : 2              (1366 /sec)
          order  9    : 6              (314 /sec)
          order 10    : 26             (98 /sec)
          order 11    : 119            (33 /sec)
          order 12    : 628            (10 /sec)
          order 13    : 4939           (8 /sec)
          order 14    : 88601          (15 /sec)
          order 15    : 1343           (12 /sec)
          order 16    : 12             (4 /sec)
          order 17    : 2              (2 /sec)
          order 18    : 0              (-nan /sec)
          order 19    : 0              (-nan /sec)
          order 20    : 0              (-nan /sec)
          order 21    : 0              (-nan /sec)
          order 22    : 0              (-nan /sec)
Noncanonical subgraphs: 947247         (119 /sec)
          order  3    : 0              (-nan /sec)
          order  4    : 0              (-nan /sec)
          order  5    : 0              (-nan /sec)
          order  6    : 0              (-nan /sec)
          order  7    : 0              (-nan /sec)
          order  8    : 0              (-nan /sec)
          order  9    : 0              (-nan /sec)
          order 10    : 0              (-nan /sec)
          order 11    : 0              (-nan /sec)
          order 12    : 0              (-nan /sec)
          order 13    : 11381          (7286 /sec)
          order 14    : 160197         (641 /sec)
          order 15    : 771765         (100 /sec)
          order 16    : 3873           (92 /sec)
          order 17    : 30             (39 /sec)
          order 18    : 1              (15 /sec)
          order 19    : 0              (-nan /sec)
          order 20    : 0              (-nan /sec)
          order 21    : 0              (-nan /sec)
Canonicity checking   : 6885.24 s
Noncanonicity checking: 7974.78 s
Total canonicity time : 14860 s
database reductions   : 60
restarts              : 2292
conflicts             : 1203438        (78 /sec)
decisions             : 2331485        (0.00 % random) (150 /sec)
propagations          : 123551917      (7968 /sec)
conflict literals     : 32623645       (59.89 % deleted)
actual reward         : 0.055824
Memory used           : 756.00 MB
CPU time              : 15505.5 s

UNSATISFIABLE
